\* SchedulingCourses *\
Minimize
OBJ: - 100 y(1000L_CS) - y(3000L_CS_DAM) - 2 y(4000L_BMP) - 3 y(4000L_CS_DAM)
 - 5 y(4000L_CS_ELECT) - 3 y(4000L_ELECT) - 11 y(4000L_MA_DE) - 2 y(500L_BMP)
 - y(500L_CS_DAM) - 11 y(500L_CS_ELECT) - 3 y(500L_ELECT) - 6 y(500L_MA_DE)
 - 2 y(500_L_DAT_MIN) - y(ALGO) - 60 y(ALL_SOC_SCI) - 20 y(ART_CON)
 - 2 y(BUS_ANALYSIS) - y(BUS_DAM) - 3 y(BUS_DE) - 5 y(CS_ELECT) - 2 y(DAT_MIN)
 - y(DIS_DPE) - y(DPE) - 3 y(DS_CORE) - 150 y(ENG_SCI) - 6 y(ENTR_INV)
 - 20 y(FLG_CON) - 20 y(HI_CON) - 3 y(HUA_DPE) - y(HUA_PROJ) - y(ID_2050)
 - 99 y(INTRO_CS) - 100 y(IQP_OFF_CM) - 25 y(IQP_ON_CM) - 2 y(LIN_ALG)
 - 4 y(MATH) - 17 y(MA_ELECT) - 20 y(PY_CON) - 3 y(SOC_SCI_DPE) - 2 y(STAT)
 - 20 y(WR_CON)
Subject To
SR(DS_4LDER): 3 x(4000L_BMP)(DS_DE) + 3 x(4000L_CS_DAM)(DS_CS)
 + 3 x(4000L_CS_DAM)(DS_DE) + 3 x(4000L_CS_ELECT)(DS_CS)
 + 3 x(4000L_CS_ELECT)(DS_DE) + 3 x(4000L_ELECT)(DS_DE)
 + 3 x(4000L_MA_DE)(DS_DE) + 3 x(4000L_MA_DE)(DS_MS) + 4.5 x(500L_BMP)(DS_DE)
 + 4.5 x(500L_CS_DAM)(DS_CS) + 4.5 x(500L_CS_DAM)(DS_DE)
 + 4.5 x(500L_CS_ELECT)(DS_CS) + 4.5 x(500L_CS_ELECT)(DS_DE)
 + 4.5 x(500L_ELECT)(DS_DE) + 4.5 x(500L_MA_DE)(DS_DE)
 + 4.5 x(500L_MA_DE)(DS_MS) + 4.5 x(500_L_DAT_MIN)(DS_CS)
 + 4.5 x(500_L_DAT_MIN)(DS_DE) + 3 x(DAT_MIN)(DS_CS) + 3 x(DAT_MIN)(DS_DE)
 >= 12
SR(DS_BMP): 3 x(4000L_BMP)(DS_DE) + 4.5 x(500L_BMP)(DS_DE) >= 3
SR(DS_CS_1000_L): - 3 x(1000L_CS)(DS_CS) >= -3
SR(DS_DAM): 3 x(3000L_CS_DAM)(DS_CS) + 3 x(3000L_CS_DAM)(DS_DE)
 + 3 x(4000L_CS_DAM)(DS_CS) + 3 x(4000L_CS_DAM)(DS_DE)
 + 4.5 x(500L_CS_DAM)(DS_CS) + 4.5 x(500L_CS_DAM)(DS_DE) + 3 x(BUS_DAM)(DS_DE)
 >= 3
SR(DS_DMML): 4.5 x(500_L_DAT_MIN)(DS_CS) + 4.5 x(500_L_DAT_MIN)(DS_DE)
 + 3 x(DAT_MIN)(DS_CS) + 3 x(DAT_MIN)(DS_DE) >= 3
SR(DS_DPE): 3 x(DIS_DPE)(DS_DE) + 3 x(HUA_DPE)(HUA_CORE)
 + 3 x(SOC_SCI_DPE)(SOC_SCI_REQ) >= 3
SR(HUA_ART_MAX): - 3 x(ART_CON)(HUA_CORE) >= -12
SR(HUA_HI_MAX): - 3 x(HI_CON)(HUA_CORE) >= -12
SR(HUA_PY_MAX): - 3 x(PY_CON)(HUA_CORE) >= -12
SR(HUA_WR_MAX): - 3 x(WR_CON)(HUA_CORE) >= -12
SR(ON_OFF_CAMPUS): 3 x(ID_2050)(SOC_SCI_REQ) + 9 x(IQP_ON_CM)(IQP) >= 3
SR2(HUA_DEPTH)(C0): - 9 SR2(HUA_DEPTH_0) + 3 x(ART_CON)(HUA_CORE) >= -0.1
SR2(HUA_DEPTH)(C1): - 9 SR2(HUA_DEPTH_1) + 3 x(FLG_CON)(HUA_CORE) >= -0.1
SR2(HUA_DEPTH)(C2): - 9 SR2(HUA_DEPTH_2) + 3 x(WR_CON)(HUA_CORE) >= -0.1
SR2(HUA_DEPTH)(C3): - 9 SR2(HUA_DEPTH_3) + 3 x(HI_CON)(HUA_CORE) >= -0.1
SR2(HUA_DEPTH)(C4): - 9 SR2(HUA_DEPTH_4) + 3 x(PY_CON)(HUA_CORE) >= -0.1
SR2_total(HUA_DEPTH): SR2(HUA_DEPTH_0) + SR2(HUA_DEPTH_1) + SR2(HUA_DEPTH_2)
 + SR2(HUA_DEPTH_3) + SR2(HUA_DEPTH_4) >= 1
credMax: 3 y(1000L_CS) + 3 y(3000L_CS_DAM) + 3 y(4000L_BMP)
 + 3 y(4000L_CS_DAM) + 3 y(4000L_CS_ELECT) + 3 y(4000L_ELECT)
 + 3 y(4000L_MA_DE) + 4.5 y(500L_BMP) + 4.5 y(500L_CS_DAM)
 + 4.5 y(500L_CS_ELECT) + 4.5 y(500L_ELECT) + 4.5 y(500L_MA_DE)
 + 4.5 y(500_L_DAT_MIN) + 3 y(ALGO) + 3 y(ALL_SOC_SCI) + 3 y(ART_CON)
 + 3 y(BUS_ANALYSIS) + 3 y(BUS_DAM) + 3 y(BUS_DE) + 3 y(CS_ELECT)
 + 3 y(DAT_MIN) + 3 y(DIS_DPE) + 3 y(DPE) + 3 y(DS_CORE) + 3 y(ENG_SCI)
 + 3 y(ENTR_INV) + 3 y(FLG_CON) + 3 y(HI_CON) + 3 y(HUA_DPE) + 3 y(HUA_PROJ)
 + 3 y(ID_2050) + 3 y(INTRO_CS) + 9 y(IQP_OFF_CM) + 9 y(IQP_ON_CM)
 + 3 y(LIN_ALG) + 3 y(MATH) + 3 y(MA_ELECT) + 3 y(PY_CON) + 3 y(SOC_SCI_DPE)
 + 3 y(STAT) + 3 y(WR_CON) <= 0
reqMin(DS_ALGOS): 3 x(ALGO)(DS_ALGOS) >= 3
reqMin(DS_BA): 3 x(BUS_ANALYSIS)(DS_BA) >= 3
reqMin(DS_C): 3 x(DS_CORE)(DS_C) >= 9
reqMin(DS_CS): 3 x(1000L_CS)(DS_CS) + 3 x(3000L_CS_DAM)(DS_CS)
 + 3 x(4000L_CS_DAM)(DS_CS) + 3 x(4000L_CS_ELECT)(DS_CS)
 + 4.5 x(500L_CS_DAM)(DS_CS) + 4.5 x(500L_CS_ELECT)(DS_CS)
 + 4.5 x(500_L_DAT_MIN)(DS_CS) + 3 x(CS_ELECT)(DS_CS) + 3 x(DAT_MIN)(DS_CS)
 + 3 x(INTRO_CS)(DS_CS) >= 6
reqMin(DS_DE): 3 x(3000L_CS_DAM)(DS_DE) + 3 x(4000L_BMP)(DS_DE)
 + 3 x(4000L_CS_DAM)(DS_DE) + 3 x(4000L_CS_ELECT)(DS_DE)
 + 3 x(4000L_ELECT)(DS_DE) + 3 x(4000L_MA_DE)(DS_DE) + 4.5 x(500L_BMP)(DS_DE)
 + 4.5 x(500L_CS_DAM)(DS_DE) + 4.5 x(500L_CS_ELECT)(DS_DE)
 + 4.5 x(500L_ELECT)(DS_DE) + 4.5 x(500L_MA_DE)(DS_DE)
 + 4.5 x(500_L_DAT_MIN)(DS_DE) + 3 x(BUS_DAM)(DS_DE) + 3 x(BUS_DE)(DS_DE)
 + 3 x(CS_ELECT)(DS_DE) + 3 x(DAT_MIN)(DS_DE) + 3 x(DIS_DPE)(DS_DE)
 + 3 x(MA_ELECT)(DS_DE) >= 36
reqMin(DS_EI): 3 x(ENTR_INV)(DS_EI) >= 3
reqMin(DS_LA): 3 x(LIN_ALG)(DS_LA) >= 3
reqMin(DS_MS): 3 x(4000L_MA_DE)(DS_MS) + 4.5 x(500L_MA_DE)(DS_MS)
 + 3 x(MATH)(DS_MS) + 3 x(MA_ELECT)(DS_MS) >= 6
reqMin(DS_NES): 3 x(ENG_SCI)(DS_NES) >= 6
reqMin(DS_STATS): 3 x(STAT)(DS_STATS) >= 6
reqMin(HUA_CORE): 3 x(ART_CON)(HUA_CORE) + 3 x(FLG_CON)(HUA_CORE)
 + 3 x(HI_CON)(HUA_CORE) + 3 x(HUA_DPE)(HUA_CORE) + 3 x(PY_CON)(HUA_CORE)
 + 3 x(WR_CON)(HUA_CORE) >= 15
reqMin(HUA_PROJ): 3 x(HUA_PROJ)(HUA_PROJ) >= 3
reqMin(IQP): 9 x(IQP_OFF_CM)(IQP) + 9 x(IQP_ON_CM)(IQP) >= 9
reqMin(SOC_SCI_REQ): 3 x(ALL_SOC_SCI)(SOC_SCI_REQ) + 3 x(ID_2050)(SOC_SCI_REQ)
 + 3 x(SOC_SCI_DPE)(SOC_SCI_REQ) >= 6
setY1(1000L_CS): x(1000L_CS)(DS_CS) - y(1000L_CS) <= 1
setY1(3000L_CS_DAM): x(3000L_CS_DAM)(DS_CS) + x(3000L_CS_DAM)(DS_DE)
 - y(3000L_CS_DAM) <= 1
setY1(4000L_BMP): x(4000L_BMP)(DS_DE) - y(4000L_BMP) <= 0
setY1(4000L_CS_DAM): x(4000L_CS_DAM)(DS_CS) + x(4000L_CS_DAM)(DS_DE)
 - y(4000L_CS_DAM) <= 1
setY1(4000L_CS_ELECT): x(4000L_CS_ELECT)(DS_CS) + x(4000L_CS_ELECT)(DS_DE)
 - y(4000L_CS_ELECT) <= 1
setY1(4000L_ELECT): x(4000L_ELECT)(DS_DE) - y(4000L_ELECT) <= 0
setY1(4000L_MA_DE): x(4000L_MA_DE)(DS_DE) + x(4000L_MA_DE)(DS_MS)
 - y(4000L_MA_DE) <= 1
setY1(500L_BMP): x(500L_BMP)(DS_DE) - y(500L_BMP) <= 2
setY1(500L_CS_DAM): x(500L_CS_DAM)(DS_CS) + x(500L_CS_DAM)(DS_DE)
 - y(500L_CS_DAM) <= 0
setY1(500L_CS_ELECT): x(500L_CS_ELECT)(DS_CS) + x(500L_CS_ELECT)(DS_DE)
 - y(500L_CS_ELECT) <= 2
setY1(500L_ELECT): x(500L_ELECT)(DS_DE) - y(500L_ELECT) <= 0
setY1(500L_MA_DE): x(500L_MA_DE)(DS_DE) + x(500L_MA_DE)(DS_MS) - y(500L_MA_DE)
 <= 0
setY1(500_L_DAT_MIN): x(500_L_DAT_MIN)(DS_CS) + x(500_L_DAT_MIN)(DS_DE)
 - y(500_L_DAT_MIN) <= 0
setY1(ALGO): x(ALGO)(DS_ALGOS) - y(ALGO) <= 1
setY1(ALL_SOC_SCI): x(ALL_SOC_SCI)(SOC_SCI_REQ) - y(ALL_SOC_SCI) <= 1
setY1(ART_CON): x(ART_CON)(HUA_CORE) - y(ART_CON) <= 0
setY1(BUS_ANALYSIS): x(BUS_ANALYSIS)(DS_BA) - y(BUS_ANALYSIS) <= 1
setY1(BUS_DAM): x(BUS_DAM)(DS_DE) - y(BUS_DAM) <= 0
setY1(BUS_DE): x(BUS_DE)(DS_DE) - y(BUS_DE) <= 0
setY1(CS_ELECT): x(CS_ELECT)(DS_CS) + x(CS_ELECT)(DS_DE) - y(CS_ELECT) <= 0
setY1(DAT_MIN): x(DAT_MIN)(DS_CS) + x(DAT_MIN)(DS_DE) - y(DAT_MIN) <= 1
setY1(DIS_DPE): x(DIS_DPE)(DS_DE) - y(DIS_DPE) <= 1
setY1(DS_CORE): x(DS_CORE)(DS_C) - y(DS_CORE) <= 3
setY1(ENG_SCI): x(ENG_SCI)(DS_NES) - y(ENG_SCI) <= 2
setY1(ENTR_INV): x(ENTR_INV)(DS_EI) - y(ENTR_INV) <= 1
setY1(FLG_CON): x(FLG_CON)(HUA_CORE) - y(FLG_CON) <= 0
setY1(HI_CON): x(HI_CON)(HUA_CORE) - y(HI_CON) <= 0
setY1(HUA_DPE): x(HUA_DPE)(HUA_CORE) - y(HUA_DPE) <= 0
setY1(HUA_PROJ): x(HUA_PROJ)(HUA_PROJ) - y(HUA_PROJ) <= 1
setY1(ID_2050): x(ID_2050)(SOC_SCI_REQ) - y(ID_2050) <= 1
setY1(INTRO_CS): x(INTRO_CS)(DS_CS) - y(INTRO_CS) <= 1
setY1(IQP_OFF_CM): x(IQP_OFF_CM)(IQP) - y(IQP_OFF_CM) <= 1
setY1(IQP_ON_CM): x(IQP_ON_CM)(IQP) - y(IQP_ON_CM) <= 0
setY1(LIN_ALG): x(LIN_ALG)(DS_LA) - y(LIN_ALG) <= 1
setY1(MATH): x(MATH)(DS_MS) - y(MATH) <= 2
setY1(MA_ELECT): x(MA_ELECT)(DS_DE) + x(MA_ELECT)(DS_MS) - y(MA_ELECT) <= 6
setY1(PY_CON): x(PY_CON)(HUA_CORE) - y(PY_CON) <= 1
setY1(SOC_SCI_DPE): x(SOC_SCI_DPE)(SOC_SCI_REQ) - y(SOC_SCI_DPE) <= 0
setY1(STAT): x(STAT)(DS_STATS) - y(STAT) <= 2
setY1(WR_CON): x(WR_CON)(HUA_CORE) - y(WR_CON) <= 4
Bounds
 0 <= x(1000L_CS)(DS_CS) <= 3
 0 <= x(4000L_BMP)(DS_DE) <= 2
 0 <= x(4000L_CS_DAM)(DS_CS) <= 3
 0 <= x(4000L_CS_DAM)(DS_DE) <= 3
 0 <= x(4000L_CS_ELECT)(DS_CS) <= 5
 0 <= x(4000L_CS_ELECT)(DS_DE) <= 5
 0 <= x(4000L_ELECT)(DS_DE) <= 3
 0 <= x(4000L_MA_DE)(DS_DE) <= 11
 0 <= x(4000L_MA_DE)(DS_MS) <= 11
 0 <= x(500L_BMP)(DS_DE) <= 2
 0 <= x(500L_CS_ELECT)(DS_CS) <= 11
 0 <= x(500L_CS_ELECT)(DS_DE) <= 11
 0 <= x(500L_ELECT)(DS_DE) <= 3
 0 <= x(500L_MA_DE)(DS_DE) <= 6
 0 <= x(500L_MA_DE)(DS_MS) <= 6
 0 <= x(500_L_DAT_MIN)(DS_CS) <= 2
 0 <= x(500_L_DAT_MIN)(DS_DE) <= 2
 0 <= x(ALL_SOC_SCI)(SOC_SCI_REQ) <= 60
 0 <= x(ART_CON)(HUA_CORE) <= 20
 0 <= x(BUS_ANALYSIS)(DS_BA) <= 2
 0 <= x(BUS_DE)(DS_DE) <= 3
 0 <= x(CS_ELECT)(DS_CS) <= 5
 0 <= x(CS_ELECT)(DS_DE) <= 5
 0 <= x(DAT_MIN)(DS_CS) <= 2
 0 <= x(DAT_MIN)(DS_DE) <= 2
 0 <= x(DS_CORE)(DS_C) <= 3
 0 <= x(ENG_SCI)(DS_NES) <= 150
 0 <= x(ENTR_INV)(DS_EI) <= 6
 0 <= x(FLG_CON)(HUA_CORE) <= 20
 0 <= x(HI_CON)(HUA_CORE) <= 20
 0 <= x(HUA_DPE)(HUA_CORE) <= 3
 0 <= x(HUA_PROJ)(HUA_PROJ) <= 2
 0 <= x(INTRO_CS)(DS_CS) <= 3
 0 <= x(IQP_OFF_CM)(IQP) <= 5
 0 <= x(LIN_ALG)(DS_LA) <= 2
 0 <= x(MATH)(DS_MS) <= 4
 0 <= x(MA_ELECT)(DS_DE) <= 17
 0 <= x(MA_ELECT)(DS_MS) <= 17
 0 <= x(PY_CON)(HUA_CORE) <= 20
 0 <= x(SOC_SCI_DPE)(SOC_SCI_REQ) <= 3
 0 <= x(STAT)(DS_STATS) <= 2
 0 <= x(WR_CON)(HUA_CORE) <= 20
 0 <= y(1000L_CS) <= 2
 y(3000L_CS_DAM) = 0
 0 <= y(4000L_BMP) <= 2
 0 <= y(4000L_CS_DAM) <= 2
 0 <= y(4000L_CS_ELECT) <= 4
 0 <= y(4000L_ELECT) <= 3
 0 <= y(4000L_MA_DE) <= 10
 y(500L_BMP) = 0
 0 <= y(500L_CS_ELECT) <= 9
 0 <= y(500L_ELECT) <= 3
 0 <= y(500L_MA_DE) <= 6
 0 <= y(500_L_DAT_MIN) <= 2
 y(ALGO) = 0
 0 <= y(ALL_SOC_SCI) <= 59
 0 <= y(ART_CON) <= 20
 0 <= y(BUS_DE) <= 3
 0 <= y(CS_ELECT) <= 5
 y(DIS_DPE) = 0
 y(DS_CORE) = 0
 0 <= y(ENG_SCI) <= 148
 0 <= y(ENTR_INV) <= 5
 0 <= y(FLG_CON) <= 20
 0 <= y(HI_CON) <= 20
 0 <= y(HUA_DPE) <= 3
 y(ID_2050) = 0
 0 <= y(INTRO_CS) <= 2
 0 <= y(IQP_OFF_CM) <= 4
 0 <= y(MATH) <= 2
 0 <= y(MA_ELECT) <= 11
 0 <= y(PY_CON) <= 19
 0 <= y(SOC_SCI_DPE) <= 3
 y(STAT) = 0
 0 <= y(WR_CON) <= 16
Generals
x(1000L_CS)(DS_CS)
x(4000L_BMP)(DS_DE)
x(4000L_CS_DAM)(DS_CS)
x(4000L_CS_DAM)(DS_DE)
x(4000L_CS_ELECT)(DS_CS)
x(4000L_CS_ELECT)(DS_DE)
x(4000L_ELECT)(DS_DE)
x(4000L_MA_DE)(DS_DE)
x(4000L_MA_DE)(DS_MS)
x(500L_BMP)(DS_DE)
x(500L_CS_ELECT)(DS_CS)
x(500L_CS_ELECT)(DS_DE)
x(500L_ELECT)(DS_DE)
x(500L_MA_DE)(DS_DE)
x(500L_MA_DE)(DS_MS)
x(500_L_DAT_MIN)(DS_CS)
x(500_L_DAT_MIN)(DS_DE)
x(ALL_SOC_SCI)(SOC_SCI_REQ)
x(ART_CON)(HUA_CORE)
x(BUS_ANALYSIS)(DS_BA)
x(BUS_DE)(DS_DE)
x(CS_ELECT)(DS_CS)
x(CS_ELECT)(DS_DE)
x(DAT_MIN)(DS_CS)
x(DAT_MIN)(DS_DE)
x(DS_CORE)(DS_C)
x(ENG_SCI)(DS_NES)
x(ENTR_INV)(DS_EI)
x(FLG_CON)(HUA_CORE)
x(HI_CON)(HUA_CORE)
x(HUA_DPE)(HUA_CORE)
x(HUA_PROJ)(HUA_PROJ)
x(INTRO_CS)(DS_CS)
x(IQP_OFF_CM)(IQP)
x(LIN_ALG)(DS_LA)
x(MATH)(DS_MS)
x(MA_ELECT)(DS_DE)
x(MA_ELECT)(DS_MS)
x(PY_CON)(HUA_CORE)
x(SOC_SCI_DPE)(SOC_SCI_REQ)
x(STAT)(DS_STATS)
x(WR_CON)(HUA_CORE)
y(1000L_CS)
y(3000L_CS_DAM)
y(4000L_BMP)
y(4000L_CS_DAM)
y(4000L_CS_ELECT)
y(4000L_ELECT)
y(4000L_MA_DE)
y(500L_BMP)
y(500L_CS_ELECT)
y(500L_ELECT)
y(500L_MA_DE)
y(500_L_DAT_MIN)
y(ALGO)
y(ALL_SOC_SCI)
y(ART_CON)
y(BUS_DE)
y(CS_ELECT)
y(DIS_DPE)
y(DS_CORE)
y(ENG_SCI)
y(ENTR_INV)
y(FLG_CON)
y(HI_CON)
y(HUA_DPE)
y(ID_2050)
y(INTRO_CS)
y(IQP_OFF_CM)
y(MATH)
y(MA_ELECT)
y(PY_CON)
y(SOC_SCI_DPE)
y(STAT)
y(WR_CON)
Binaries
SR2(HUA_DEPTH_0)
SR2(HUA_DEPTH_1)
SR2(HUA_DEPTH_2)
SR2(HUA_DEPTH_3)
SR2(HUA_DEPTH_4)
x(3000L_CS_DAM)(DS_CS)
x(3000L_CS_DAM)(DS_DE)
x(500L_CS_DAM)(DS_CS)
x(500L_CS_DAM)(DS_DE)
x(ALGO)(DS_ALGOS)
x(BUS_DAM)(DS_DE)
x(DIS_DPE)(DS_DE)
x(ID_2050)(SOC_SCI_REQ)
x(IQP_ON_CM)(IQP)
y(500L_CS_DAM)
y(BUS_ANALYSIS)
y(BUS_DAM)
y(DAT_MIN)
y(DPE)
y(HUA_PROJ)
y(IQP_ON_CM)
y(LIN_ALG)
End
